[VALIDATOR STDOUT]
Checking plan: /home/jfan5/Safety-gen/runs/benchmark/optic/ferry_20260129_162355/ferry/optic_results/ferry-l11-c06-s11001.plan
Plan executed successfully - checking goal
Plan valid
Final value: 23 

Successful plans:
Value: 23
 /home/jfan5/Safety-gen/runs/benchmark/optic/ferry_20260129_162355/ferry/optic_results/ferry-l11-c06-s11001.plan 23
